70
15
12	14	19	13	19	19	10	14	18	18	13	17	14	10	19	15	13	17	18	13	15	17	12	10	17	12	14	12	15	17	12	17	10	11	19	13	15	18	11	15	11	12	17	17	12	12	19	17	12	19	16	15	14	19	10	14	15	17	13	17	13	11	17	16	13	12	19	16	16	15	
31	0	0	0	0	0	0	0	0	0	0	0	32	0	0	
0	0	0	0	82	0	0	0	0	77	0	0	0	69	0	
44	0	0	0	45	38	0	0	45	0	0	0	0	44	0	
0	0	0	74	0	0	67	74	0	0	0	86	0	0	0	
65	0	0	57	0	0	0	0	63	0	0	50	0	52	52	
0	18	0	0	0	0	0	0	0	18	23	0	0	21	0	
44	0	0	0	0	0	50	0	0	0	0	40	43	37	0	
0	0	0	0	83	0	0	105	103	0	104	108	0	0	0	
0	0	37	0	0	0	46	0	35	0	39	0	43	0	0	
50	45	0	0	0	0	0	0	0	0	0	43	0	50	0	
75	0	0	0	77	0	82	71	87	0	0	0	95	89	0	
10	0	0	0	11	0	10	0	0	0	15	15	0	0	11	
0	0	19	0	19	0	0	17	0	0	0	0	0	16	0	
0	45	0	0	43	0	37	44	47	39	36	0	0	0	0	
71	0	0	95	0	0	0	0	0	0	69	100	84	0	99	
70	0	49	0	0	0	0	0	55	0	0	0	0	0	68	
0	0	28	0	0	27	0	0	36	0	32	0	0	0	0	
0	0	48	0	0	0	0	0	0	0	0	0	0	0	0	
0	0	0	0	0	79	62	0	60	0	0	0	74	57	0	
0	0	0	0	0	0	0	0	0	94	107	99	106	0	0	
21	0	0	0	0	0	21	0	18	0	19	0	0	0	22	
0	0	0	0	0	0	0	15	0	0	0	0	13	0	13	
0	0	0	0	0	0	0	0	53	0	0	0	0	0	0	
0	103	0	0	0	101	0	0	0	0	72	0	95	0	90	
0	0	0	0	0	0	81	0	63	62	0	0	0	0	0	
87	0	0	0	0	86	0	0	97	102	0	0	85	95	0	
0	0	0	0	26	0	31	31	0	34	29	0	0	0	0	
0	77	0	76	0	0	0	79	0	0	0	0	96	80	90	
69	80	93	0	0	0	0	0	0	76	82	0	87	0	78	
0	0	0	34	0	0	40	32	43	34	0	31	39	0	0	
0	81	0	0	0	0	0	86	84	0	0	0	80	0	86	
51	0	0	0	0	0	0	0	0	0	0	0	56	0	61	
0	0	0	43	0	0	0	0	53	0	0	0	0	43	48	
0	36	0	0	0	43	35	35	45	0	39	0	38	0	0	
0	0	0	0	0	0	0	62	0	0	0	0	56	0	50	
0	30	28	0	0	0	30	0	23	0	0	0	0	30	30	
53	61	0	48	0	0	0	0	0	60	0	0	0	54	0	
0	44	44	0	0	0	0	0	0	0	0	0	0	0	0	
0	0	94	0	0	107	103	0	0	0	86	0	0	0	0	
0	0	64	0	0	0	53	0	0	0	0	0	71	0	0	
0	0	0	0	0	0	96	94	0	0	0	0	79	0	78	
0	0	78	104	0	110	87	0	101	0	0	0	0	0	0	
0	0	49	46	0	0	0	0	0	0	0	36	0	0	41	
28	0	0	0	0	33	0	0	0	0	32	0	0	0	0	
0	0	0	0	0	84	101	73	0	105	0	89	86	0	0	
71	67	0	76	68	0	57	0	71	0	79	66	0	0	63	
0	34	0	0	0	37	39	0	33	0	0	0	0	0	0	
0	0	0	0	0	54	0	74	0	0	69	0	0	69	0	
0	0	0	46	0	57	53	52	0	0	48	0	0	0	54	
0	20	0	16	0	0	21	0	0	15	0	0	0	0	0	
0	0	24	17	0	20	23	0	19	0	0	0	0	0	0	
0	65	62	0	79	90	0	80	0	0	0	0	0	0	0	
0	72	75	67	0	0	82	64	0	0	66	0	63	65	0	
0	0	0	0	88	0	0	0	83	90	0	0	0	0	0	
0	95	0	0	0	0	0	0	0	0	0	0	0	0	0	
0	84	0	0	70	0	0	0	0	0	63	0	78	0	0	
110	0	0	94	0	0	106	0	0	109	89	86	110	0	0	
0	0	0	0	13	0	0	0	0	0	0	0	0	0	0	
0	0	0	79	78	0	0	68	71	0	90	0	0	91	0	
0	0	10	0	10	0	0	0	0	10	0	12	12	0	0	
0	44	52	0	0	0	0	51	0	50	0	56	0	63	0	
0	0	0	0	76	0	0	0	85	0	103	0	0	76	0	
0	46	0	0	51	44	0	0	41	59	0	57	48	0	0	
0	0	100	0	89	0	0	0	0	0	99	0	0	0	93	
0	0	41	0	0	0	0	0	0	0	0	38	43	0	0	
0	42	0	0	0	0	0	0	0	0	0	0	0	0	0	
0	0	0	0	0	51	0	53	0	0	59	65	0	0	46	
0	0	0	0	0	0	0	0	0	0	0	74	0	0	0	
105	0	108	0	107	0	0	0	0	0	0	90	104	0	0	
0	0	33	0	0	0	24	0	0	0	32	0	0	0	0	
45	0	0	0	0	0	0	0	0	0	0	0	0	0	0	
0	0	0	0	0	0	13	12	10	0	11	0	0	0	0	
25	0	0	0	0	0	0	0	29	0	30	0	0	0	0	
57	57	0	0	0	0	0	0	0	0	0	0	72	80	0	
0	39	0	0	39	33	0	37	0	0	0	0	0	0	0	
0	39	0	39	0	34	37	33	29	39	0	0	0	0	0	
90	0	112	0	89	0	0	104	88	0	87	0	0	0	0	
95	0	0	0	0	0	79	0	0	0	0	0	82	71	0	
0	0	60	68	0	0	0	65	0	0	0	0	0	0	0	
0	0	0	0	0	0	79	0	0	102	0	0	0	0	104	
37	44	50	36	0	0	0	0	36	44	0	0	0	0	0	
0	65	0	0	0	0	59	0	71	0	0	73	0	72	71	
0	58	0	0	0	0	0	49	0	65	0	0	0	53	72	
76	73	0	71	66	0	0	0	0	0	0	85	0	68	0	
0	0	80	0	0	0	0	87	0	106	84	112	82	0	78	
13	0	10	0	0	0	0	10	0	0	10	0	0	0	0	
0	25	0	0	28	0	0	0	0	0	0	0	23	0	0	
45	0	56	0	48	0	0	0	0	0	56	0	0	0	0	
0	0	0	101	0	101	0	95	76	0	94	0	0	95	97	
0	33	0	26	28	0	0	0	36	0	0	0	0	0	0	
0	0	0	0	57	53	0	0	49	0	0	52	57	0	61	
28	21	0	0	0	0	0	0	0	0	0	0	0	0	0	
46	0	0	0	0	0	45	0	0	44	0	0	0	0	0	
0	0	38	0	38	0	0	0	36	0	48	0	0	39	34	
0	0	52	0	61	59	0	0	0	0	0	0	0	0	0	
59	56	0	67	0	60	64	0	71	73	0	0	0	0	76	
0	0	51	44	0	0	0	51	0	0	0	0	0	0	59	
0	0	0	0	0	0	0	50	0	0	0	0	0	48	0	
0	0	0	0	0	0	0	26	0	0	0	0	26	29	0	
0	0	42	0	33	0	0	36	39	0	0	0	0	0	0	
0	0	0	0	0	0	0	0	0	0	78	0	76	81	0	
0	0	0	0	0	18	19	0	0	18	21	25	24	0	20	
36	0	38	40	0	0	30	0	0	0	0	0	0	0	32	
0	0	0	0	0	0	0	86	0	0	0	0	73	0	0	
0	42	36	38	0	0	0	0	0	0	0	32	0	0	0	
0	10	0	0	0	12	0	0	0	0	0	0	0	0	0	
0	0	98	0	94	76	0	0	0	0	0	0	0	0	87	
0	0	0	74	0	0	69	0	0	0	0	0	80	82	73	
0	0	0	0	0	0	0	0	53	0	0	0	42	0	0	
0	0	0	102	0	103	0	0	0	0	83	0	0	0	0	
0	0	0	0	0	0	70	0	52	0	61	0	0	0	0	
0	0	0	0	74	0	0	0	0	0	0	0	0	0	0	
0	73	0	82	0	0	68	63	88	81	87	0	0	0	83	
0	36	0	43	0	0	36	0	42	0	0	0	0	0	0	
0	0	79	0	0	59	0	83	72	0	0	0	68	0	0	
0	0	0	0	0	0	75	81	0	106	77	0	0	0	0	
0	0	38	0	0	0	0	0	0	0	49	0	0	0	0	
76	105	0	0	94	101	0	104	0	79	0	0	0	0	0	
60	0	0	0	70	0	0	52	0	0	0	0	0	59	0	
26	25	0	0	0	0	0	0	0	0	24	0	0	0	0	
0	0	0	20	0	22	0	0	0	0	0	18	0	0	0	
47	0	0	44	0	42	0	0	0	0	0	0	60	0	0	
0	0	0	0	0	0	0	0	70	0	0	0	0	0	0	
0	22	0	0	25	21	0	0	21	0	0	25	22	0	0	
0	0	0	69	0	0	0	0	0	0	74	0	0	0	0	
0	0	0	0	0	0	52	0	0	0	0	0	0	66	0	
65	89	69	0	0	0	74	0	0	0	0	0	0	71	91	
0	0	0	0	0	28	31	26	29	29	29	32	0	0	0	
0	0	68	0	0	0	0	0	0	0	0	75	0	81	72	
112	82	0	104	0	101	0	94	0	109	0	0	90	0	0	
0	0	0	0	0	0	0	0	0	93	0	0	79	0	0	
0	0	0	67	76	0	0	0	0	0	0	0	0	79	0	
0	62	0	0	0	0	0	0	0	0	0	71	0	60	0	
60	0	63	0	63	0	54	0	0	0	0	0	60	49	55	
0	92	0	0	86	0	79	0	0	0	0	84	0	0	0	
24	0	0	0	0	0	0	0	0	0	0	29	30	0	0	
10	0	0	0	0	0	0	0	11	9	0	0	0	10	9	
46	52	0	0	0	0	0	60	0	58	53	0	0	0	0	
0	0	0	0	77	0	0	0	0	0	0	0	0	0	0	
71	68	0	0	0	0	0	0	52	0	64	61	71	0	0	
79	0	84	70	0	0	0	74	0	78	0	70	0	0	0	
111	0	0	0	107	0	0	0	103	84	75	103	0	0	0	
87	0	76	0	0	0	83	0	0	0	0	83	69	0	0	
0	0	0	42	0	0	0	0	0	0	0	0	0	44	0	
0	0	0	83	0	0	0	0	0	0	71	0	66	74	0	
0	0	0	0	44	0	37	0	0	0	32	0	0	0	39	
46	0	0	0	0	0	37	41	44	0	44	44	44	35	0	
0	54	61	59	0	67	73	50	0	63	0	0	0	57	0	
0	0	65	0	0	0	56	0	0	62	56	0	0	0	60	
0	0	0	55	0	0	61	0	0	0	0	0	0	0	49	
0	0	0	0	0	61	57	0	0	0	0	0	0	0	0	
18	0	0	16	0	21	0	0	14	0	0	17	17	19	0	
84	0	0	81	0	0	79	64	0	0	0	81	0	0	81	
0	0	42	51	0	0	0	0	0	48	0	0	0	47	44	
27	33	23	0	23	0	0	0	0	30	0	0	0	26	0	
83	0	0	0	0	0	0	0	90	0	0	0	0	0	0	
41	0	0	33	0	0	0	0	0	0	0	0	0	0	0	
83	0	0	0	84	0	72	80	76	85	0	88	0	0	0	
0	0	0	0	74	0	0	94	0	83	0	0	0	0	73	
0	0	0	0	0	0	0	0	15	0	0	0	11	0	0	
0	0	0	65	0	0	69	0	0	66	78	0	0	0	0	
0	0	93	0	103	0	77	0	0	0	0	87	96	87	86	
0	36	0	28	0	0	34	0	0	0	26	0	0	0	28	
0	0	0	0	0	0	65	0	90	89	0	80	0	0	72	
0	83	74	0	0	0	0	0	0	0	0	0	0	77	0	
0	0	27	0	0	24	27	22	0	0	0	28	29	0	0	
22	0	0	0	23	0	0	0	0	0	0	18	0	22	0	
80	0	0	0	0	0	0	0	0	89	0	0	0	0	85	
0	0	0	0	26	0	0	0	0	0	0	36	0	0	0	
0	0	0	0	0	31	0	33	35	0	0	26	0	28	35	
0	32	0	0	30	28	32	31	31	0	0	0	32	0	0	
0	15	15	0	0	0	0	0	0	0	0	0	0	0	0	
65	0	0	0	50	70	0	52	66	0	49	0	0	0	50	
0	0	43	43	44	55	0	0	51	0	0	0	0	0	48	
0	56	0	65	0	0	61	0	0	66	0	0	0	0	0	
0	0	0	0	0	105	0	0	0	0	88	87	103	0	0	
0	51	0	0	0	43	0	0	0	41	0	0	40	0	0	
0	33	25	0	0	0	0	35	34	0	29	0	36	30	0	
0	0	0	0	73	0	0	0	58	0	0	0	0	0	64	
0	0	0	0	0	0	0	86	0	77	0	0	0	71	0	
0	68	0	0	0	0	0	0	0	0	65	70	0	0	54	
0	13	18	0	0	0	0	0	0	13	17	15	0	0	16	
104	0	0	0	0	0	79	0	0	87	86	0	0	0	0	
92	100	93	0	83	0	0	0	0	86	0	0	0	0	0	
0	0	83	72	0	0	65	72	0	0	0	0	0	83	67	
12	0	12	17	16	0	0	0	16	0	0	16	0	0	0	
69	0	0	0	0	0	0	0	74	0	64	0	83	0	0	
0	0	0	0	0	0	0	0	26	0	0	0	0	22	24	
60	0	0	0	0	0	0	0	71	0	0	0	54	0	0	
0	0	70	0	92	0	0	0	0	74	76	0	84	79	0	
70	0	0	72	0	0	0	70	0	77	0	0	0	0	0	
39	0	30	0	0	0	0	43	0	0	0	0	0	0	0	
0	71	0	0	0	72	0	75	0	0	0	0	0	0	0	
0	13	16	14	0	0	0	0	0	0	0	16	12	13	0	
35	0	0	34	0	0	0	0	0	0	36	0	28	0	0	
0	70	83	0	0	0	0	98	0	0	98	0	83	77	0	
75	81	0	0	0	0	0	75	61	0	62	0	0	0	0	
0	84	59	62	0	66	0	0	67	0	65	83	86	81	0	
0	15	21	0	18	21	0	0	0	0	19	17	0	0	17	
0	0	0	58	68	0	0	0	0	62	0	53	51	61	0	
67	0	0	0	0	0	0	0	0	54	0	0	0	0	0	
0	0	70	61	0	0	80	0	79	0	0	0	0	75	0	
0	0	0	83	0	0	82	0	73	84	0	0	73	0	0	
66	89	0	0	0	0	0	0	0	0	90	0	80	86	0	
18	0	0	0	23	0	19	0	0	0	0	24	19	24	0	
73	0	0	62	0	0	0	75	0	0	0	0	73	61	0	
84	0	80	0	0	72	0	0	0	0	0	0	0	0	72	
0	0	0	40	30	0	0	0	38	0	0	0	0	0	28	
21	0	0	26	19	25	0	21	0	0	23	21	22	22	0	
0	0	0	0	41	0	0	0	40	0	0	0	0	0	43	
0	0	0	102	0	0	88	0	92	86	0	0	99	91	89	
0	59	0	0	0	0	0	57	0	0	0	0	0	59	0	
0	66	66	82	0	0	58	0	0	81	58	0	0	0	69	
0	87	0	0	0	0	92	0	0	0	0	0	0	0	90	
0	0	0	0	44	39	0	0	40	0	0	0	38	42	0	
0	0	55	0	50	52	0	0	69	0	0	0	0	62	0	
35	0	0	49	43	0	48	40	41	0	0	0	0	0	45	
0	60	62	0	0	61	0	0	0	0	0	0	0	76	0	
10	11	0	0	0	10	0	0	0	0	0	0	0	9	0	
0	48	0	0	0	0	0	48	45	0	0	0	52	0	0	
0	0	29	0	0	30	0	0	0	0	39	0	0	0	33	
0	0	0	0	0	16	0	0	0	18	0	0	0	0	0	
0	72	0	0	0	0	0	73	0	0	0	0	0	63	0	
0	0	28	0	28	29	26	0	0	28	36	0	36	38	0	
0	0	0	0	0	0	0	0	0	81	0	63	0	79	86	
0	0	0	0	0	45	0	0	0	0	43	0	0	0	0	
0	0	14	0	11	15	0	11	0	0	0	15	0	14	13	
61	0	53	0	0	56	0	0	0	0	0	0	0	0	0	
0	0	0	25	0	0	27	0	0	0	31	0	0	0	0	
0	0	0	0	66	0	0	69	0	0	0	0	0	0	0	
0	0	0	0	0	0	0	49	56	0	0	0	0	0	0	
0	0	0	0	0	0	39	33	33	33	0	37	0	0	30	
0	63	69	0	0	0	0	0	0	60	0	70	0	0	0	
0	0	0	12	0	12	11	0	11	0	12	0	0	11	0	
0	0	0	89	73	0	65	78	87	0	0	0	0	0	0	
44	0	0	0	0	0	0	0	0	0	50	0	0	0	48	
0	0	0	0	35	36	0	0	31	0	36	0	0	31	40	
0	0	0	112	0	0	0	0	0	0	0	0	0	0	87	
0	0	0	0	0	28	0	0	0	0	0	0	27	0	0	
0	0	0	0	0	0	0	0	0	0	0	54	0	38	39	
28	0	0	0	0	0	0	0	0	21	0	0	0	0	29	
0	31	30	33	0	27	0	0	0	0	24	0	0	0	0	
0	81	89	70	85	85	0	74	79	71	0	72	0	0	0	
46	48	44	0	0	0	0	0	0	53	0	0	0	45	0	
62	87	0	0	0	62	0	0	0	0	0	0	0	0	0	
0	22	0	18	0	0	0	19	0	0	0	0	0	0	0	
74	0	0	65	0	58	0	0	0	71	0	0	0	56	0	
0	0	0	0	0	46	54	0	60	0	56	0	50	0	0	
0	0	0	0	0	0	0	81	84	99	74	0	0	96	0	
19	16	19	0	18	0	0	0	0	0	19	0	16	14	15	
0	0	0	0	0	0	22	23	0	24	0	0	18	0	24	
68	51	0	68	0	64	0	66	0	0	0	55	0	0	0	
0	95	0	0	0	0	83	80	89	0	0	0	0	73	0	
41	0	0	0	38	0	35	0	0	0	0	0	0	0	0	
0	95	0	0	0	93	75	0	0	0	0	103	91	0	0	
0	0	0	0	0	0	55	0	0	0	0	68	59	0	0	
79	0	0	0	0	0	0	0	75	0	77	67	0	0	0	
104	0	0	81	0	81	0	0	0	0	0	0	98	79	0	
78	74	85	0	0	0	85	98	0	85	0	87	88	0	0	
0	0	97	0	82	0	75	0	0	0	0	0	0	79	72	
20	16	22	0	15	0	0	20	0	0	17	16	17	0	0	
103	0	72	102	0	0	0	87	0	0	0	0	0	0	0	
0	41	38	40	0	48	0	46	0	0	0	0	41	0	0	
46	43	0	42	0	42	39	0	36	0	0	44	0	0	0	
0	0	0	72	0	0	67	0	0	60	0	0	0	78	0	
82	90	0	98	0	104	0	0	0	0	103	0	72	0	0	
98	0	0	101	85	78	0	0	97	71	0	0	0	0	0	
75	111	0	0	0	0	0	0	0	0	0	93	0	0	102	
0	17	0	0	0	0	0	0	0	0	13	0	0	0	0	
0	0	0	0	0	0	0	41	52	0	0	48	46	0	36	
53	44	0	0	0	0	0	0	0	48	0	0	0	0	0	
31	0	0	30	0	0	0	44	0	0	0	37	0	0	0	
0	0	58	0	0	0	55	0	51	0	53	0	0	0	0	
0	0	14	0	0	0	0	12	0	0	11	0	15	0	10	
0	0	0	0	84	0	0	0	0	82	0	0	0	77	106	
0	0	0	0	0	0	87	0	0	92	0	83	0	0	0	
0	21	0	0	0	0	0	0	0	25	0	0	0	23	0	
0	0	0	0	0	0	0	0	0	0	0	0	0	0	62	
77	0	0	0	62	73	0	0	0	0	60	75	0	0	0	
0	0	0	26	0	0	26	0	25	0	0	24	0	0	31	
0	71	0	67	0	68	56	61	61	0	0	52	69	52	0	
18	16	0	0	18	0	17	15	0	15	0	18	0	19	19	
0	60	0	0	0	0	0	0	59	0	41	0	48	0	0	
27	0	0	29	0	0	31	35	0	0	0	0	0	0	0	
17	0	0	0	0	18	22	20	18	20	0	0	23	0	18	
0	0	0	89	0	0	0	0	69	0	0	78	0	0	0	
61	70	0	73	0	59	0	0	0	0	63	0	74	74	0	
0	56	0	68	0	0	0	63	0	0	0	63	0	76	0	
0	0	0	56	0	0	0	0	55	0	63	0	56	0	0	
0	0	0	0	74	0	0	0	0	0	0	0	58	0	0	
0	28	20	22	0	0	0	0	0	0	0	0	29	0	27	
34	0	0	38	32	34	0	41	0	0	29	0	0	34	41	
78	66	69	0	0	0	0	0	0	0	0	0	0	82	64	
68	0	0	0	56	0	0	0	0	55	0	0	0	0	0	
0	86	0	0	0	0	0	0	0	0	0	86	80	80	0	
0	66	0	0	0	67	0	0	77	72	0	70	71	0	0	
0	0	0	0	93	0	0	0	0	0	0	0	93	0	0	
72	0	0	0	0	0	0	0	0	0	0	64	0	0	0	
86	0	0	0	0	0	103	0	0	0	0	94	0	89	74	
0	43	0	41	0	30	0	0	0	0	0	0	0	0	39	
43	43	0	0	0	0	0	0	0	45	0	0	0	59	0	
0	0	0	0	94	92	91	93	0	66	0	0	0	0	0	
0	65	0	0	53	69	0	0	0	49	0	0	0	0	64	
0	0	85	0	0	0	0	108	0	0	0	80	0	0	0	
0	93	115	0	107	106	94	0	0	107	79	0	0	0	0	
81	0	0	88	0	86	0	112	0	0	82	0	0	97	0	
0	0	0	0	0	24	0	0	23	0	32	0	0	0	30	
0	0	0	15	0	0	14	0	0	0	11	0	0	0	0	
0	0	0	43	0	0	0	35	0	43	31	0	0	42	35	
0	20	0	20	0	18	21	0	0	0	0	0	0	21	0	
0	0	48	39	44	0	0	0	0	0	0	0	0	0	0	
0	0	0	0	0	20	0	0	0	0	0	0	0	0	19	
46	0	0	0	31	0	34	0	0	0	0	43	41	0	0	
0	0	0	0	0	0	0	0	0	0	46	0	43	52	0	
38	0	0	35	38	36	33	0	0	46	0	0	0	42	34	
86	69	0	80	71	0	73	58	0	0	0	0	0	70	0	
74	0	0	83	0	0	86	65	65	0	0	0	0	0	74	
0	0	0	77	0	0	0	67	0	0	89	0	0	0	85	
84	0	0	0	0	77	0	0	0	0	0	0	0	0	0	
15	12	0	0	15	13	0	0	14	0	0	0	0	0	0	
0	0	0	29	0	0	20	0	28	0	0	0	28	0	0	
0	0	0	0	0	36	28	0	0	26	0	0	31	0	0	
80	97	77	0	0	0	0	0	0	76	0	0	0	0	0	
0	0	0	0	0	0	0	58	0	0	58	0	0	0	0	
35	0	0	39	37	0	0	0	45	0	0	0	40	0	37	
17	0	18	0	0	0	0	0	0	0	17	0	0	15	0	
40	31	0	0	0	0	39	38	0	0	40	0	0	0	34	
0	0	22	31	0	22	0	0	0	0	0	0	0	25	0	
0	0	93	0	0	0	0	0	72	0	72	0	0	0	96	
0	0	110	82	104	0	0	0	0	0	0	0	0	0	0	
0	0	0	0	67	0	0	0	0	66	0	0	62	0	0	
0	41	0	49	0	0	0	0	0	37	0	37	0	0	46	
91	0	0	73	105	0	97	0	95	0	0	77	0	94	0	
0	0	0	73	0	0	0	0	0	0	0	63	84	61	76	
0	0	0	0	0	0	89	0	78	75	0	0	0	0	100	
0	97	115	0	0	0	0	0	0	0	0	0	0	0	89	
0	0	0	82	0	93	0	0	116	113	0	0	0	95	0	
21	0	0	0	0	19	0	0	0	0	0	16	20	0	0	
0	55	59	0	0	0	0	0	0	0	0	0	74	0	0	
0	0	0	0	0	0	83	0	0	0	0	103	0	0	0	
56	0	0	0	0	68	62	0	56	0	0	0	0	0	0	
0	0	13	0	14	13	0	0	0	0	0	0	0	0	0	
0	0	0	0	0	0	0	0	48	0	0	0	43	40	0	
0	0	0	69	72	0	0	0	0	0	66	0	0	0	0	
0	0	0	0	9	9	10	0	0	0	0	11	0	0	0	
0	0	69	0	0	0	0	0	0	75	0	0	0	76	0	
0	0	73	0	68	0	62	0	0	0	0	78	77	79	0	
0	0	0	21	0	0	0	0	17	0	21	17	17	0	0	
0	0	0	0	0	0	0	0	0	0	0	0	28	28	0	
0	25	0	0	0	0	19	22	0	0	0	25	23	22	22	
0	0	22	18	0	0	0	19	0	0	0	0	23	17	20	
53	0	53	0	0	0	0	0	0	0	0	0	65	0	0	
87	86	0	0	85	0	0	0	81	101	0	87	96	0	0	
35	27	0	0	0	0	0	34	0	0	0	0	0	33	0	
96	0	0	98	0	104	0	0	0	0	74	79	0	107	0	
28	25	26	0	0	28	29	0	0	23	26	30	0	0	0	
69	0	82	0	67	93	74	0	81	0	85	0	0	0	0	
0	0	0	0	0	59	0	0	64	0	63	53	0	0	0	
0	0	0	53	58	0	62	44	0	0	0	0	60	0	0	
0	0	0	91	105	0	81	0	0	0	0	0	0	0	0	
0	0	0	0	0	0	0	0	0	0	0	0	87	70	0	
24	0	34	0	0	26	0	34	0	35	0	0	0	0	32	
0	62	0	81	0	81	0	0	0	0	0	0	0	0	0	
0	0	0	29	0	0	28	38	0	38	0	36	0	0	0	
60	64	0	64	0	0	0	0	0	0	62	0	84	0	0	
0	0	33	0	0	0	31	39	0	0	0	0	31	0	0	
22	0	0	0	0	0	0	17	19	0	0	0	0	0	0	
0	0	0	71	95	0	0	0	0	0	0	0	0	0	83	
0	76	0	77	79	82	0	0	0	0	0	0	0	61	68	
0	68	63	62	0	0	61	0	0	0	0	0	0	0	0	
0	100	77	0	0	0	0	84	0	0	0	0	0	0	0	
0	0	0	57	73	0	0	0	0	73	0	0	0	0	0	
0	0	65	0	0	0	63	67	0	0	0	0	0	0	0	
0	0	0	0	14	0	0	0	0	0	0	0	19	0	0	
0	0	0	0	48	0	0	49	0	0	0	0	70	56	52	
0	0	0	0	0	0	0	0	0	0	0	0	82	0	0	
0	0	0	21	0	0	0	0	22	0	0	0	17	22	0	
0	0	0	0	67	0	70	0	88	0	0	0	0	0	0	
30	0	0	0	0	0	0	32	0	31	0	0	0	0	0	
0	0	81	0	0	0	94	94	95	0	81	0	0	0	0	
82	86	0	0	0	0	0	0	0	0	0	62	77	70	0	
20	0	0	0	0	0	22	0	0	20	0	0	0	0	18	
0	0	0	0	38	0	0	0	36	0	0	0	41	0	0	
0	0	0	0	0	46	51	43	0	0	54	0	0	0	0	
57	48	0	0	0	0	0	0	46	0	0	52	0	0	59	
0	0	0	0	0	0	0	0	0	62	0	57	75	66	0	
8	0	0	8	0	11	0	10	0	0	11	0	0	0	0	
92	0	88	0	0	0	0	0	0	111	83	0	0	79	0	
0	0	0	0	46	0	49	49	0	0	45	0	0	51	0	
0	0	72	0	0	0	0	0	0	0	79	0	68	0	88	
0	0	63	0	0	0	0	0	0	53	0	0	0	0	0	
0	0	0	0	0	0	0	0	0	0	0	0	23	0	0	
45	34	0	41	0	0	0	0	0	0	0	0	0	0	0	
0	0	0	0	0	72	0	0	82	81	62	0	0	78	0	
39	0	0	0	37	36	0	0	0	0	0	36	0	0	35	
0	42	0	0	0	0	0	43	0	0	0	0	0	41	0	
0	0	0	13	0	0	13	0	0	0	16	0	16	0	12	
81	0	0	0	0	0	0	89	0	0	0	80	0	0	63	
0	0	10	0	0	9	0	0	0	0	9	0	12	0	12	
0	0	0	0	70	0	0	0	0	52	0	0	0	0	0	
18	19	0	0	20	17	0	0	0	0	0	0	0	0	21	
0	80	73	0	78	0	76	56	0	0	0	56	60	0	0	
0	73	0	0	0	0	0	0	79	0	0	0	0	0	69	
0	0	0	0	0	58	0	0	0	0	0	0	0	60	62	
33	0	34	0	43	0	42	0	0	0	0	0	0	0	0	
0	0	0	57	58	55	0	0	0	0	0	0	0	0	0	
0	0	0	0	10	0	0	0	0	0	13	0	11	0	0	
50	0	0	56	0	0	0	0	0	0	0	0	0	0	0	
0	0	0	65	0	0	72	76	0	0	60	86	0	0	0	
77	76	0	0	0	0	0	0	0	0	0	0	0	100	0	
102	87	0	0	0	0	0	0	93	85	0	85	0	77	0	
0	0	0	100	0	100	97	0	0	99	0	0	0	0	72	
0	0	50	0	0	64	50	0	0	0	46	0	0	0	0	
0	63	62	0	0	75	0	0	0	72	0	0	0	0	0	
0	0	0	62	58	0	0	63	67	0	0	0	0	0	57	
0	16	0	0	0	15	0	0	20	18	16	0	22	0	0	
0	0	102	0	99	0	0	0	83	0	0	0	0	0	0	
54	0	56	51	0	47	0	0	0	0	0	0	0	0	0	
0	0	0	0	0	29	0	0	33	0	25	0	0	0	0	
0	0	0	29	21	0	0	0	0	0	25	0	0	0	24	
0	0	17	0	18	0	20	0	0	22	23	0	20	0	17	
0	59	0	0	0	58	0	69	58	0	0	0	0	0	55	
0	0	77	88	109	91	0	0	103	0	0	82	0	92	0	
71	71	0	93	0	0	96	0	0	0	0	0	0	0	0	
0	0	0	0	0	0	0	0	0	51	0	0	0	0	0	
0	0	0	13	16	15	12	12	15	0	0	11	0	0	0	
25	28	0	0	0	0	31	28	0	0	0	28	0	0	26	
0	0	0	0	87	0	81	0	0	0	0	0	0	96	92	
0	85	0	0	98	0	82	68	97	0	72	0	0	0	0	
13	0	15	0	11	0	0	0	0	11	0	0	0	0	0	
0	0	26	0	26	0	0	0	0	19	0	0	0	0	0	
0	0	0	0	0	0	0	0	0	13	0	14	0	0	0	
12	0	0	0	0	0	0	0	0	0	0	10	0	0	0	
0	0	0	0	0	75	104	79	0	0	0	83	0	0	0	
48	0	0	0	0	0	0	57	0	0	0	0	42	0	58	
0	0	0	0	0	0	0	53	0	0	0	0	47	0	0	
0	0	81	0	0	0	58	0	0	64	0	63	0	0	0	
0	89	72	0	69	0	0	0	71	0	0	0	0	0	71	
0	0	0	0	0	18	0	0	17	0	16	0	0	15	0	
0	0	41	0	0	0	0	0	51	0	0	37	0	0	0	
0	0	17	23	0	0	24	0	0	18	0	0	0	0	0	
60	0	0	57	52	0	0	70	63	52	0	65	0	0	0	
0	0	0	0	0	0	73	0	0	103	0	0	107	0	103	
79	0	0	0	0	66	70	0	0	0	0	70	0	0	72	
0	0	0	0	26	0	32	27	0	0	31	0	0	0	0	
0	0	0	26	0	27	0	0	0	34	0	0	32	37	0	
0	76	0	73	83	72	0	0	0	0	88	0	0	75	82	
0	0	0	0	18	19	0	15	16	0	16	0	0	0	21	
0	0	85	95	0	0	0	0	0	0	0	0	100	0	0	
74	75	0	0	0	64	0	64	0	73	0	0	58	74	67	
30	0	31	0	0	26	0	32	0	32	0	0	35	0	34	
80	96	73	69	71	0	0	0	0	0	85	75	0	0	0	
0	0	0	0	0	66	0	0	0	72	64	71	0	0	57	
0	0	80	0	0	0	65	0	82	81	0	86	69	80	0	
46	0	0	44	0	0	0	0	0	0	51	42	50	0	0	
55	41	50	50	0	50	0	0	0	0	0	45	0	56	0	
0	0	32	0	0	0	0	0	0	0	0	0	0	0	0	
38	0	37	0	0	0	0	37	26	0	0	0	0	39	0	
67	78	63	0	0	0	0	56	0	0	0	0	69	55	59	
97	0	0	95	0	0	0	80	0	0	0	0	79	0	0	
0	29	0	33	0	30	32	0	0	0	29	33	0	0	0	
0	0	78	0	0	0	95	0	0	0	0	0	100	0	0	
0	0	0	0	0	0	20	0	28	0	21	0	0	0	0	
0	0	77	0	0	0	0	0	0	0	0	0	0	101	70	
0	0	55	0	0	0	0	57	0	0	0	0	51	0	52	
41	0	46	0	0	0	0	38	0	0	46	0	0	0	0	
0	0	51	39	39	0	0	0	58	0	54	0	56	0	39	
0	0	68	75	67	0	67	0	0	0	0	76	0	0	63	
0	17	0	0	0	0	21	0	0	0	0	0	20	0	0	
110	0	0	103	0	0	0	75	0	0	0	0	108	102	0	
0	68	83	0	0	62	0	0	78	0	0	0	0	0	72	
0	78	0	0	74	0	84	61	0	0	0	0	0	0	0	
0	0	0	42	44	0	46	0	43	0	51	44	0	0	0	
0	0	0	11	14	0	0	0	16	0	0	0	0	0	0	
0	0	0	0	0	0	0	0	0	0	24	0	0	0	18	
0	31	0	36	0	41	30	28	28	0	40	0	0	29	28	
0	0	0	0	72	0	0	57	0	0	0	0	0	69	0	
0	97	76	70	82	0	89	0	0	0	0	0	0	0	0	
46	0	0	0	0	0	0	0	0	0	0	65	0	0	0	
0	0	0	0	0	74	0	88	84	0	0	0	0	71	0	
0	44	0	0	0	0	0	36	0	0	0	50	0	0	50	
0	65	0	0	0	0	0	0	0	0	0	0	0	0	48	
56	65	66	58	0	0	0	0	70	0	0	0	0	0	49	
25	0	27	0	24	27	0	0	29	0	0	0	0	0	0	
0	65	0	0	0	0	0	0	0	0	0	0	0	0	69	
0	0	0	44	0	0	0	0	47	0	0	0	0	0	0	
0	0	39	0	43	0	0	53	0	0	0	0	0	0	0	
0	18	0	0	20	16	20	0	0	0	0	0	0	14	15	
27	0	0	0	0	0	0	32	0	31	0	0	0	0	0	
0	0	0	0	117	0	0	0	0	0	93	91	0	116	89	
54	55	0	64	0	0	0	0	55	0	0	45	0	0	0	
0	59	56	0	59	0	0	0	48	0	0	0	0	59	0	
31	0	0	32	0	33	24	0	0	0	28	0	0	26	32	
0	0	0	42	0	42	0	34	0	0	0	0	0	42	39	
0	0	0	0	0	88	0	0	73	0	74	0	79	0	0	
0	0	0	0	0	22	0	0	0	0	0	0	0	0	24	
0	0	0	0	0	0	0	87	0	0	0	0	102	0	0	
0	33	0	0	24	0	0	0	0	0	0	33	0	0	0	
93	0	88	91	0	0	0	0	90	0	0	0	0	0	74	
54	47	0	0	0	0	0	0	0	0	47	0	0	0	0	
0	0	0	0	0	0	0	0	0	0	0	46	46	40	0	
0	0	29	0	0	0	0	0	0	0	0	0	0	0	0	
21	0	0	0	0	16	0	0	0	0	0	0	0	0	0	
35	0	0	0	0	0	28	0	0	0	0	40	0	0	34	
40	0	42	39	0	0	0	0	0	0	41	0	0	0	0	
77	0	0	0	0	72	0	63	68	69	67	60	82	0	0	
0	109	0	112	0	0	0	111	99	79	83	0	111	100	111	
0	0	21	25	0	0	0	0	0	0	26	0	0	0	0	
0	35	0	37	0	46	47	0	0	0	0	0	0	0	35	
18	0	0	15	0	0	0	0	0	0	0	0	0	0	21	
0	17	21	0	0	0	0	0	0	0	0	0	0	0	0	
0	0	74	0	0	83	0	0	0	0	0	0	0	0	0	
0	0	76	0	0	0	0	0	0	87	69	0	0	0	0	
114	0	0	0	0	0	0	0	0	0	0	0	0	84	0	
0	26	0	20	0	0	0	0	0	0	0	0	28	0	21	
0	0	0	63	0	55	0	53	0	52	67	0	68	0	0	
0	0	0	0	0	0	0	0	50	0	70	0	60	0	0	
0	0	0	0	0	0	0	89	0	0	0	82	0	0	0	
0	29	0	34	0	39	0	0	0	34	0	0	30	38	35	
0	0	0	0	13	0	0	0	13	0	0	13	0	0	0	
0	95	0	0	0	77	0	0	76	0	0	0	0	0	0	
0	0	26	30	28	0	32	0	0	0	25	0	0	0	0	
0	0	0	0	106	0	87	0	0	0	90	0	96	0	0	
0	0	0	0	0	46	44	0	0	0	47	0	0	0	0	
0	0	0	0	0	0	0	36	0	0	48	0	48	0	0	
0	0	0	30	0	0	0	31	0	0	0	0	33	0	0	
0	52	0	60	0	0	51	0	0	46	0	0	52	0	0	
0	77	0	0	0	0	75	81	99	0	0	76	0	87	0	
34	0	0	0	0	0	0	0	0	0	30	0	0	0	0	
0	0	0	0	0	0	82	81	0	76	0	0	0	77	0	
0	0	0	0	0	41	0	0	0	0	0	0	36	0	0	
79	64	0	0	75	60	0	0	0	0	0	84	0	68	0	
0	0	0	37	0	50	0	0	0	0	36	0	39	51	0	
0	0	0	0	72	70	0	0	60	0	52	0	0	0	51	
38	0	0	0	0	0	34	0	0	0	0	0	0	0	40	
0	34	0	0	0	35	0	0	38	32	0	0	0	0	0	
0	0	0	0	117	0	0	109	0	114	0	101	110	0	0	
0	0	102	100	0	0	0	83	0	78	0	73	95	0	0	
18	15	0	0	21	0	0	0	21	0	0	0	0	0	0	
22	0	0	0	0	0	0	0	0	0	0	0	0	0	0	
80	0	102	94	87	76	0	90	0	0	109	102	97	0	0	
74	0	0	0	76	0	0	0	0	77	0	90	0	0	94	
23	0	0	18	22	0	0	0	18	0	0	0	0	17	18	
22	0	0	0	0	0	16	18	17	0	0	0	0	0	0	
28	0	0	0	23	0	0	0	0	0	0	0	0	0	27	
0	0	17	0	0	0	0	14	0	0	0	0	14	14	0	
0	0	0	0	0	0	0	58	0	68	0	0	0	0	0	
0	0	0	0	0	22	0	0	0	0	0	33	0	25	32	
0	0	33	0	0	39	0	0	41	0	0	0	0	0	0	
0	0	86	71	0	80	0	0	0	0	0	67	0	0	0	
65	0	0	0	68	0	0	73	85	0	0	89	0	0	0	
0	0	45	0	0	0	55	0	0	0	0	48	0	48	42	
51	0	53	0	0	0	0	0	0	0	45	0	39	0	39	
0	0	8	10	9	8	0	0	11	0	0	0	0	0	9	
0	0	0	0	52	0	50	0	0	0	0	0	0	0	0	
37	0	0	0	0	43	0	51	41	0	40	37	0	0	0	
0	0	0	81	87	0	99	0	0	0	0	108	0	0	0	
26	27	0	0	0	0	0	24	0	0	30	27	0	0	0	
0	0	0	0	0	0	17	17	0	0	16	19	0	18	19	
0	0	0	90	0	84	93	78	0	0	0	0	74	0	78	
0	0	27	0	0	0	0	28	0	0	31	32	23	0	0	
100	0	0	0	78	98	0	0	0	89	96	99	0	68	0	
0	0	0	0	0	11	0	0	9	11	12	0	0	0	0	
0	0	0	0	63	50	0	57	0	73	0	0	0	0	0	
78	63	75	0	0	0	84	0	79	90	0	91	0	65	0	
0	48	59	0	0	0	0	0	0	0	0	0	0	0	0	
0	30	0	0	0	0	0	0	0	0	0	39	0	31	0	
38	39	32	0	0	35	0	0	38	45	0	0	0	0	35	
0	50	0	0	0	50	0	0	0	0	0	51	0	49	59	
0	53	0	0	0	0	0	0	49	0	0	46	48	59	0	
10	0	0	12	11	0	0	10	12	11	0	0	0	0	11	
0	0	61	0	0	54	59	46	0	48	0	0	0	60	0	
0	0	40	0	58	53	54	48	0	48	0	0	53	0	57	
0	58	0	0	49	0	0	0	0	0	0	0	65	0	51	
0	0	0	0	33	0	0	0	0	0	0	0	0	0	0	
0	16	18	0	15	0	0	0	0	0	0	18	0	15	0	
0	69	0	0	0	0	0	61	0	0	0	0	63	0	0	
86	0	0	0	0	0	0	0	95	96	79	91	96	70	0	
68	69	77	74	0	0	0	0	0	0	87	0	0	0	0	
22	0	0	23	0	0	0	32	0	0	0	0	0	0	0	
26	0	0	0	26	33	29	33	29	0	0	27	0	26	31	
0	0	0	0	0	58	0	54	0	0	0	60	0	0	0	
0	0	35	0	0	31	0	0	0	0	0	38	0	0	29	
0	0	0	0	0	0	0	0	0	0	0	0	84	0	0	
0	57	0	62	0	0	0	0	0	62	0	0	0	0	0	
0	0	0	0	0	0	0	0	0	92	97	0	0	0	0	
25	0	0	0	0	24	0	23	23	0	0	27	0	0	0	
83	0	115	108	0	82	111	114	0	0	0	83	0	0	0	
42	38	0	0	46	45	0	0	0	0	0	36	50	0	0	
0	0	43	0	0	0	0	0	45	48	56	50	0	0	0	
0	16	14	0	0	0	0	18	13	0	15	14	0	0	0	
0	24	0	33	0	0	0	31	0	0	0	28	0	0	0	
41	44	0	0	0	0	38	0	44	0	0	40	0	38	0	
0	58	64	0	0	0	0	0	0	63	0	68	0	69	0	
38	0	0	0	0	0	0	31	0	40	31	0	0	0	0	
59	0	0	0	46	60	0	0	68	54	61	0	0	0	0	
68	83	0	0	0	0	97	79	0	0	0	86	0	84	0	
43	0	0	0	41	0	35	0	0	0	30	41	0	0	35	
13	14	0	0	0	14	0	14	11	0	0	0	0	11	0	
0	0	0	104	0	85	0	0	0	112	0	112	0	0	0	
37	0	0	0	0	33	0	34	0	0	0	0	0	0	40	
0	0	0	0	0	0	0	0	0	0	0	113	82	0	93	
98	72	0	0	72	0	0	0	86	88	84	81	0	74	0	
0	0	0	34	27	0	0	27	0	0	39	27	29	0	0	
0	56	71	0	0	0	70	0	61	0	0	0	67	0	60	
0	0	13	12	15	0	0	0	0	0	15	0	11	0	0	
0	29	26	0	0	32	30	0	0	0	27	0	0	0	31	
0	11	0	0	0	13	0	0	0	15	13	0	10	10	0	
0	0	0	45	52	0	53	0	43	0	42	0	49	0	0	
43	0	0	0	0	51	55	0	0	0	0	0	0	0	47	
0	0	0	92	65	0	77	0	0	0	0	0	0	0	0	
0	0	0	0	44	0	0	0	41	0	55	0	0	0	0	
0	74	0	81	68	0	0	66	0	82	0	0	78	0	0	
0	0	0	0	0	0	0	0	0	0	35	36	0	31	36	
0	65	81	0	0	0	82	0	0	0	0	0	0	0	0	
0	36	0	33	38	32	0	0	0	0	0	0	0	0	34	
26	0	28	0	0	0	0	0	0	0	0	22	0	28	0	
0	0	0	0	36	29	0	0	0	29	0	0	0	0	0	
0	0	36	39	0	49	0	0	0	0	0	0	0	42	0	
0	78	64	76	71	0	0	0	0	62	0	76	0	0	0	
0	0	0	0	0	0	52	0	0	47	47	0	62	0	0	
0	0	0	0	77	0	68	0	0	0	0	0	99	0	0	
0	0	0	77	101	103	0	0	95	103	0	0	0	0	0	
102	0	0	74	0	0	0	0	0	0	0	0	87	0	0	
37	0	0	0	0	0	36	0	0	31	38	37	0	0	0	
0	54	0	42	0	0	0	43	0	0	0	53	0	0	0	
18	16	0	0	0	0	0	0	0	0	0	0	0	19	0	
107	0	0	0	0	0	0	0	0	0	0	107	0	0	0	
0	0	0	83	0	0	0	0	0	0	0	0	0	0	0	
0	89	0	0	0	0	0	95	0	0	0	87	100	0	0	
10	12	11	0	0	0	12	0	0	11	0	0	0	0	13	
0	0	100	0	0	0	0	0	0	75	0	0	0	0	0	
0	0	12	0	0	0	0	0	10	11	9	9	0	0	10	
0	0	0	0	19	0	0	0	0	0	19	0	0	0	0	
60	0	56	53	62	0	0	49	0	0	0	0	47	0	56	
0	70	0	0	70	0	0	88	0	0	0	0	0	78	72	
0	0	86	0	0	0	0	0	0	0	0	0	0	0	0	
0	0	0	22	0	25	0	28	0	0	0	30	0	29	0	
86	85	0	0	88	0	0	74	72	0	76	0	0	0	0	
0	0	0	52	0	51	57	0	66	58	0	0	0	63	0	
0	0	0	0	0	62	0	0	0	0	0	0	71	0	91	
12	0	12	0	0	0	0	9	0	0	0	11	12	0	0	
0	28	0	0	0	0	0	0	0	0	31	30	0	0	37	
0	0	23	23	0	0	0	0	20	20	18	0	0	24	0	
0	0	23	0	0	0	0	0	0	0	0	0	17	0	0	
62	0	0	0	0	0	0	0	0	71	76	0	0	0	0	
0	67	0	0	68	0	0	0	0	0	64	52	63	0	0	
0	63	0	0	0	0	0	0	60	0	0	54	0	0	45	
0	0	0	0	84	0	69	0	0	71	86	0	64	0	83	
0	0	0	15	0	15	0	17	15	0	16	0	14	16	0	
0	0	19	0	0	0	0	0	0	0	21	0	0	0	0	
0	58	0	0	0	58	0	0	0	0	0	0	0	59	0	
0	0	0	0	11	0	0	0	0	0	0	0	0	0	0	
0	0	0	0	0	0	0	0	57	0	0	0	58	71	0	
0	0	0	19	0	0	0	0	0	0	19	25	0	0	0	
0	0	0	0	0	9	0	0	0	10	8	11	0	10	0	
0	97	0	0	0	0	0	69	0	76	0	70	0	71	0	
0	0	0	46	0	0	0	48	35	0	0	0	35	0	0	
0	75	0	65	71	58	0	0	0	0	0	75	0	64	0	
0	26	0	0	35	28	0	30	0	29	0	28	0	0	0	
0	0	0	0	64	0	0	0	0	68	85	0	0	0	0	
0	0	0	0	0	0	0	102	0	0	0	84	116	88	0	
97	77	0	106	0	95	95	0	0	0	106	0	0	0	0	
0	59	0	0	0	51	62	56	0	0	0	0	0	0	0	
68	0	0	73	0	61	0	0	0	0	69	0	0	73	70	
67	0	0	0	0	0	0	0	0	0	80	0	84	0	0	
0	0	0	31	0	0	0	0	23	0	0	30	0	0	0	
0	0	0	0	0	61	0	58	0	0	0	0	0	0	43	
0	93	0	0	90	0	0	0	0	0	0	83	106	0	0	
0	0	0	52	0	43	0	0	0	0	0	0	59	0	0	
0	0	0	0	33	0	0	30	0	0	0	0	0	35	28	
104	0	0	0	0	0	0	0	0	81	0	0	95	0	0	
0	0	0	66	80	85	0	75	0	0	0	83	0	80	81	
0	0	0	0	41	31	0	41	0	0	40	35	0	30	35	
0	66	0	60	0	64	0	0	0	0	0	49	49	0	62	
0	0	0	0	0	54	0	0	0	0	0	0	0	54	43	
109	0	76	0	102	0	0	97	0	0	0	0	0	0	0	
0	16	0	0	0	0	0	17	12	0	0	14	15	0	16	
68	0	0	0	68	0	58	76	0	0	83	0	75	0	0	
0	0	0	0	0	23	0	0	29	0	0	22	25	0	20	
0	0	0	0	38	42	0	0	0	42	0	0	39	0	31	
0	97	74	102	97	0	0	0	0	0	0	82	0	83	88	
0	0	0	22	0	0	0	0	0	26	0	0	18	0	0	
0	0	0	0	0	0	0	0	0	0	0	87	76	0	0	
0	0	0	0	69	0	0	74	0	0	0	0	0	0	0	
0	0	0	0	0	0	29	0	0	0	0	0	0	0	0	
0	0	0	35	46	0	0	40	0	0	44	0	0	0	37	
0	0	73	88	0	0	0	93	0	83	0	65	79	0	0	
0	0	0	0	0	64	63	0	53	0	0	0	46	54	0	
0	0	0	0	0	0	0	0	0	0	0	38	0	0	0	
0	0	0	0	0	54	0	53	0	0	58	0	0	56	50	
35	48	40	0	41	0	0	0	0	0	0	0	46	0	0	
83	0	0	0	0	0	66	0	0	0	0	0	0	0	0	
59	0	0	0	85	0	0	83	0	0	0	84	74	64	66	
0	0	76	0	0	79	73	62	0	86	0	0	86	0	0	
0	0	105	98	105	85	0	0	104	83	0	97	0	0	0	
0	0	0	0	0	53	47	0	40	0	0	40	0	0	0	
54	0	0	0	0	0	0	63	57	56	0	56	0	0	0	
75	0	110	0	0	0	109	0	0	0	0	0	0	95	0	
42	35	0	0	33	0	36	0	0	0	0	0	37	34	0	
67	0	56	0	0	0	0	0	0	0	76	0	0	60	0	
0	0	94	0	0	0	0	0	0	0	78	0	0	0	96	
0	0	0	79	79	0	0	0	0	0	0	79	0	0	80	
0	0	0	0	0	29	0	0	0	0	0	27	0	0	0	
62	0	49	0	0	63	61	0	0	0	53	0	0	0	55	
0	70	0	0	0	53	0	65	0	0	0	0	0	0	50	
0	0	0	0	0	0	0	0	53	0	50	60	0	0	61	
50	0	38	0	0	36	0	0	0	40	43	0	0	0	0	
89	0	0	0	0	0	0	0	97	0	0	0	0	0	85	
45	53	0	57	0	0	0	48	0	0	0	0	0	0	0	
0	0	60	71	54	0	0	75	53	52	0	74	0	60	65	
0	99	90	0	82	0	0	0	0	0	0	0	0	0	89	
0	27	0	0	0	0	0	0	27	0	27	0	0	0	28	
0	0	0	0	0	0	0	43	0	0	33	0	0	0	0	
68	0	69	0	60	0	68	0	0	0	0	0	76	54	64	
94	0	0	0	0	109	0	0	0	0	0	0	96	0	0	
0	16	0	0	0	15	0	16	14	0	0	0	0	0	0	
24	27	0	0	0	0	27	0	0	0	0	0	0	0	0	
66	0	64	0	0	0	0	0	0	0	0	0	57	0	0	
0	67	85	0	0	0	0	0	95	0	0	0	0	99	0	
0	0	91	0	0	0	0	0	0	0	0	0	0	0	0	
0	0	48	61	65	67	0	0	55	0	58	0	56	0	0	
0	95	77	0	0	0	0	0	86	0	0	88	0	96	0	
0	0	0	0	0	103	76	0	0	0	0	0	0	0	0	
0	0	0	0	0	0	0	0	0	0	0	0	0	0	54	
0	38	0	0	0	34	0	0	0	0	0	0	0	35	0	
0	0	36	0	0	0	38	0	0	0	0	0	0	0	0	
0	0	0	0	0	0	0	31	0	33	0	0	25	0	32	
0	94	0	0	0	0	0	89	86	0	0	0	0	0	0	
0	0	0	0	14	0	0	17	0	0	0	0	0	19	0	
0	0	0	0	0	0	29	32	0	0	0	0	28	0	0	
77	0	0	67	0	78	57	0	0	0	0	60	0	0	0	
0	0	0	0	0	0	49	0	0	67	0	0	0	0	0	
57	68	72	0	0	77	0	0	0	0	60	0	74	0	0	
0	67	0	0	0	0	0	0	0	0	0	0	0	0	0	
37	0	0	44	0	0	49	0	38	36	44	0	0	0	0	
50	0	0	49	0	0	0	62	54	0	0	0	0	0	0	
51	0	0	0	0	60	0	0	68	0	0	0	0	0	0	
0	0	46	0	44	0	0	50	0	40	0	45	40	0	43	
0	49	0	69	54	0	0	0	0	0	53	0	0	0	54	
0	56	0	0	0	64	0	0	0	64	0	61	0	63	0	
0	0	93	0	0	0	0	0	0	0	0	80	0	0	0	
0	0	0	0	0	0	56	0	0	0	0	0	0	0	0	
59	61	0	72	0	0	0	61	73	0	65	64	0	73	0	
0	92	0	66	64	0	0	80	0	82	0	0	68	0	89	
0	74	0	0	80	74	84	96	0	77	80	81	0	0	84	
0	30	0	0	0	0	0	0	0	0	0	0	26	0	0	
0	49	0	0	0	0	0	0	36	0	46	50	0	0	0	
0	0	66	0	0	0	0	0	0	0	0	0	0	0	0	
25	28	0	27	0	27	22	0	0	0	0	27	0	0	0	
53	71	0	0	0	0	55	0	53	54	0	0	66	60	0	
0	0	37	0	33	0	40	0	0	0	0	0	0	0	0	
0	19	0	23	23	20	0	0	0	0	22	0	0	0	0	
0	0	0	0	0	0	0	0	0	0	0	79	69	0	0	
28	0	0	37	0	0	0	37	0	0	0	0	0	0	32	
91	0	0	77	0	0	0	89	73	0	73	0	0	0	68	
0	0	28	27	0	21	0	26	0	0	28	0	0	30	22	
0	59	0	0	83	71	0	0	0	58	68	0	0	0	70	
0	0	77	0	0	0	0	0	0	83	73	0	0	0	0	
28	0	0	33	0	0	0	32	0	0	0	27	30	0	32	
0	0	0	0	0	98	0	0	110	0	100	0	0	0	100	
0	0	68	52	0	0	0	67	0	0	0	0	0	0	0	
0	0	73	0	0	81	0	83	0	58	0	0	0	62	0	
0	0	14	13	0	0	17	0	0	0	0	0	0	0	0	
0	0	75	73	0	0	0	0	0	0	0	59	0	60	85	
45	0	0	0	0	0	0	0	0	40	0	0	0	55	47	
0	0	0	0	0	0	0	0	0	18	20	0	0	0	0	
52	0	0	64	47	0	0	0	53	0	0	59	0	0	0	
0	62	73	0	67	76	70	0	0	0	55	0	0	0	0	
0	0	0	47	0	0	0	0	0	0	48	65	0	66	63	
0	0	0	95	0	95	91	0	0	102	109	0	0	0	80	
76	0	0	0	0	70	0	0	59	0	0	0	0	0	0	
0	0	11	9	0	0	0	0	0	0	0	8	0	0	10	
0	0	0	0	56	0	0	0	59	0	0	65	0	0	0	
0	0	106	74	0	80	0	0	101	0	0	0	106	0	0	
0	0	13	0	0	18	0	0	0	0	0	16	0	0	0	
0	9	0	11	0	0	0	0	0	12	0	0	9	0	0	
0	87	0	105	0	0	0	78	0	0	0	100	0	84	0	
0	55	0	0	0	59	0	0	0	59	0	51	0	0	43	
0	55	0	38	46	49	52	0	0	0	0	39	0	40	39	
91	0	0	97	0	82	99	95	112	0	0	0	0	0	86	
0	0	0	0	0	0	0	0	0	0	90	0	92	0	88	
0	0	0	37	0	37	0	0	36	29	0	0	0	0	0	
0	0	40	0	0	0	0	0	48	0	0	0	0	0	43	
0	0	0	0	0	0	0	0	0	104	0	0	0	104	102	
52	0	0	44	0	37	0	0	48	44	0	0	0	0	0	
0	0	0	17	0	0	19	15	0	0	0	0	15	0	0	
0	0	54	53	0	0	0	54	0	60	71	72	76	0	0	
38	0	37	40	0	43	40	0	37	0	0	30	0	37	0	
0	0	68	0	0	0	66	0	0	0	62	61	0	0	0	
0	0	25	0	22	20	0	24	0	25	0	0	0	0	0	
0	0	0	35	32	0	0	35	0	37	0	0	33	0	0	
0	0	0	0	0	0	0	0	0	0	0	0	43	0	0	
27	0	0	0	29	0	0	0	0	0	21	24	0	0	0	
0	0	0	0	0	0	0	72	0	73	0	0	73	59	66	
0	0	0	0	67	86	0	0	76	0	0	0	0	0	0	
0	26	0	0	21	0	0	0	24	0	0	0	0	26	18	
0	0	0	0	62	70	55	0	69	0	0	0	0	77	59	
0	68	0	0	99	0	0	0	89	0	0	0	0	68	93	
0	0	0	39	52	0	0	0	48	0	41	0	0	0	0	
0	0	0	0	0	0	49	0	0	0	0	48	0	0	0	
0	0	0	0	0	0	65	51	0	0	0	0	0	65	0	
0	74	72	85	0	69	0	89	63	71	65	68	0	0	0	
79	0	62	63	0	0	63	0	74	70	74	0	0	89	0	
0	24	0	0	0	0	0	0	0	0	0	0	0	0	0	
0	0	69	0	63	0	0	0	0	0	0	0	0	71	57	
0	0	0	0	0	90	0	0	0	102	95	0	0	100	95	
0	85	0	0	0	100	0	93	86	99	81	67	0	0	0	
23	0	24	34	0	0	28	26	0	27	0	0	28	0	27	
0	0	39	0	0	0	0	0	0	0	0	48	0	0	0	
0	0	0	0	30	33	0	0	35	0	0	0	0	29	0	
63	0	0	0	44	0	0	60	0	0	61	0	0	0	44	
75	0	0	0	0	0	105	0	92	0	0	0	0	100	103	
0	0	0	0	51	0	0	61	66	0	0	58	0	59	68	
0	0	52	0	0	0	0	0	48	0	0	0	41	47	0	
0	38	0	0	0	0	0	0	0	0	0	0	0	32	0	
0	0	0	0	0	0	0	36	0	0	0	0	31	27	0	
56	68	0	71	0	55	0	59	0	0	59	0	59	0	0	
0	0	0	0	0	0	0	0	0	78	0	0	0	0	0	
0	60	0	52	55	0	0	0	0	50	0	56	0	0	67	
23	0	30	0	0	0	26	0	0	0	0	0	0	33	0	
0	0	103	0	0	0	85	97	0	0	0	0	84	0	0	
0	56	0	0	0	0	0	0	0	0	0	0	0	0	0	
0	0	0	42	0	0	0	0	43	57	56	0	0	44	0	
0	0	0	0	24	0	0	20	18	0	0	24	0	0	0	
0	0	0	0	0	0	0	0	0	0	0	16	18	0	0	
0	0	0	0	40	0	0	0	0	0	45	51	0	0	0	
0	76	0	0	78	0	0	0	87	0	0	66	0	98	90	
0	0	56	55	0	0	0	0	49	0	0	0	0	53	0	
42	0	42	43	0	0	0	0	0	38	0	0	41	0	33	
0	0	0	0	0	0	31	0	0	0	0	41	0	0	0	
67	0	0	0	0	0	0	0	70	0	48	0	0	0	0	
0	0	47	0	48	0	0	0	0	0	0	0	0	0	48	
103	0	0	0	0	0	74	0	0	0	0	0	0	0	0	
0	0	0	0	0	91	0	0	96	0	0	0	0	92	0	
0	0	0	55	0	0	0	0	55	50	0	0	60	57	0	
0	13	0	0	13	10	0	0	0	0	0	0	0	0	0	
0	0	0	0	0	0	0	0	0	80	0	0	0	59	83	
0	0	0	0	0	73	64	0	0	0	0	0	0	0	54	
0	0	47	43	0	0	32	0	0	39	34	0	32	0	41	
0	0	89	0	0	0	77	0	0	98	0	105	0	0	0	
61	0	0	48	0	0	0	0	0	50	58	0	48	0	42	
0	0	40	0	0	0	38	34	0	33	0	0	37	0	0	
0	0	0	0	41	0	0	0	0	0	0	35	37	0	0	
0	0	112	103	0	0	86	0	99	92	0	0	0	0	0	
34	0	36	0	0	0	0	0	0	0	0	35	0	0	0	
0	86	0	0	103	76	80	0	0	0	0	0	0	80	0	
0	0	0	0	0	0	0	10	12	0	0	0	0	0	0	
0	0	0	81	0	0	0	0	0	107	88	0	106	109	0	
0	0	0	0	43	0	0	38	39	33	34	0	34	47	0	
0	79	0	76	0	78	0	73	0	0	0	0	0	77	61	
0	52	0	0	62	0	0	0	0	58	0	64	0	0	0	
0	0	0	0	0	0	51	0	0	47	39	0	0	0	0	
38	40	0	0	42	0	0	0	40	0	0	0	0	0	42	
0	0	0	0	0	42	0	0	0	0	0	0	0	36	0	
0	0	48	0	0	0	66	0	0	0	54	0	0	55	0	
61	57	63	76	78	55	0	64	73	55	0	0	70	0	72	
47	0	0	0	0	50	0	0	38	0	0	37	0	0	0	
0	80	0	72	0	0	69	72	0	93	0	0	0	0	0	
50	0	0	0	0	0	0	0	0	0	0	51	0	0	0	
0	0	0	0	0	0	0	0	11	12	0	0	0	12	0	
0	0	0	0	0	0	0	0	0	0	0	31	32	0	0	
0	0	0	0	0	0	0	0	0	93	0	0	0	91	0	
0	65	0	0	88	0	0	0	75	0	0	74	0	69	82	
76	0	0	0	0	68	0	0	0	56	0	0	0	0	0	
0	65	74	0	0	0	0	0	0	0	96	0	0	0	80	
0	0	0	0	0	0	0	0	104	0	0	101	0	0	0	
70	0	0	0	0	0	0	0	0	74	0	0	0	0	0	
0	0	90	84	0	0	0	103	0	0	107	0	91	93	0	
0	48	48	0	0	60	44	0	0	0	0	0	46	45	0	
0	99	70	0	0	0	77	0	70	0	0	0	75	94	81	
0	107	0	0	0	0	0	92	0	103	100	78	0	91	103	
0	0	0	0	0	63	0	0	0	48	0	68	0	0	0	
0	77	0	0	79	0	0	0	0	65	63	84	0	0	0	
31	0	28	0	33	33	0	0	0	0	28	24	0	0	0	
0	92	0	83	0	95	0	0	0	95	0	0	0	0	0	
0	72	0	0	0	0	65	0	0	0	0	0	0	0	0	
0	12	0	10	0	13	0	0	0	0	0	0	13	0	0	
0	34	0	0	0	0	33	0	0	0	0	38	36	0	0	
80	0	0	85	66	0	78	68	0	0	0	76	0	0	69	
0	111	0	107	0	0	77	0	0	88	0	0	0	92	0	
78	0	0	78	0	72	0	0	0	0	68	0	64	0	0	
0	0	48	0	0	43	0	0	48	0	0	47	0	48	0	
0	0	0	0	0	0	0	0	74	0	0	97	0	0	0	
0	0	44	0	46	0	0	0	0	0	0	0	0	0	45	
23	0	0	0	0	0	0	0	31	22	0	27	26	23	23	
32	0	32	33	0	0	0	45	0	39	0	0	0	34	0	
25	0	0	30	0	0	0	0	0	0	0	26	0	0	28	
0	0	0	0	0	32	0	0	25	34	0	0	0	27	0	
0	0	52	0	0	0	61	0	48	0	50	0	0	0	60	
107	0	91	0	0	0	0	0	79	0	74	100	0	0	0	
0	0	0	0	71	0	0	0	68	57	69	0	0	78	72	
0	0	69	61	0	0	0	0	75	0	0	0	0	0	0	
0	0	0	40	0	0	55	0	0	53	0	0	0	0	44	
0	40	0	0	0	0	0	0	0	0	42	0	45	38	0	
58	0	0	0	0	0	0	78	60	0	0	0	0	0	0	
33	0	0	0	28	0	32	0	0	0	0	0	33	29	0	
109	0	85	0	0	0	0	0	0	0	93	0	0	102	0	
17	0	17	0	15	0	17	0	0	0	15	13	0	0	0	
0	77	0	84	0	86	0	0	68	0	0	70	75	86	71	
0	36	0	0	0	0	0	0	0	28	0	29	0	30	0	
107	83	0	0	92	0	0	79	0	0	0	0	0	0	0	
0	37	0	38	0	0	37	0	0	0	35	0	0	0	0	
0	24	24	0	26	0	27	27	0	0	0	21	0	0	0	
0	0	0	0	0	0	59	0	65	0	0	64	0	0	0	
0	0	0	0	0	0	30	0	0	0	0	0	0	30	0	
0	0	0	81	0	93	75	87	0	62	0	0	0	88	0	
0	0	15	0	0	15	0	0	0	12	0	0	0	0	0	
0	64	0	59	0	74	0	0	78	0	0	0	0	0	0	
22	0	0	0	21	0	18	0	0	0	0	0	23	17	17	
0	22	0	0	0	17	0	19	16	16	0	0	0	0	0	
36	0	0	0	0	0	0	0	0	0	0	34	0	35	0	
0	0	0	0	0	9	0	0	11	0	8	0	0	0	0	
0	19	20	0	0	26	18	0	0	26	18	0	0	0	0	
0	0	76	0	65	74	67	65	0	62	0	0	0	0	66	
0	0	85	0	0	0	0	0	96	0	0	0	80	66	0	
0	0	0	0	0	0	0	63	0	0	77	0	89	0	69	
0	86	0	0	81	0	78	0	0	87	0	86	0	0	0	
0	0	0	0	94	80	0	0	81	0	96	0	87	85	0	
0	0	0	0	0	0	0	52	0	0	0	0	0	0	0	
0	0	0	0	0	0	0	0	81	0	0	81	76	0	0	
0	0	0	0	0	0	56	0	0	0	0	0	47	0	0	
0	0	0	27	0	21	0	0	0	26	18	0	21	0	0	
44	35	0	39	0	40	0	40	40	35	0	45	46	0	0	
26	0	0	0	33	25	29	0	0	0	0	0	0	23	0	
0	0	0	0	40	41	0	0	0	0	0	0	37	0	0	
0	0	0	0	0	0	0	0	0	61	0	84	66	0	0	
84	0	76	0	0	0	70	77	0	0	79	0	83	0	0	
58	0	0	0	0	44	0	48	50	49	54	0	0	55	0	
0	0	69	0	65	72	0	78	0	0	0	66	0	0	0	
48	63	0	0	0	0	51	0	55	0	66	0	0	0	0	
0	72	0	0	0	0	0	0	0	59	0	0	0	0	0	
0	0	0	13	0	0	15	0	0	0	0	0	0	0	0	
0	60	71	0	0	0	0	65	58	71	0	56	0	0	0	
27	0	21	0	0	25	0	0	0	22	0	0	0	25	22	
0	0	0	0	0	0	0	32	0	0	0	0	39	26	0	
22	16	0	0	0	0	0	0	23	16	21	0	0	17	0	
0	0	59	0	0	0	0	0	0	0	0	0	0	0	0	
0	90	0	0	0	0	101	0	0	109	0	96	0	0	101	
0	70	74	91	81	0	0	0	0	0	0	0	71	101	0	
0	0	0	0	0	0	29	32	0	29	28	0	0	0	0	
0	0	0	108	93	0	0	0	0	0	0	86	0	0	95	
0	0	20	29	0	0	27	0	0	25	0	23	0	21	0	
22	25	0	0	31	0	22	0	0	0	0	28	22	26	23	
53	0	0	0	0	0	52	0	52	0	0	0	0	0	0	
0	30	0	0	0	23	0	0	28	24	25	0	30	0	0	
0	0	0	0	0	0	0	110	98	110	0	0	104	112	0	
0	50	0	0	46	0	0	0	0	53	0	0	58	0	0	
0	0	0	0	0	0	0	40	0	0	39	0	0	0	0	
30	0	0	0	30	28	0	34	0	33	0	29	0	0	0	
0	70	0	0	0	0	0	0	79	0	74	88	0	0	0	
0	0	21	0	0	0	0	23	25	0	22	0	19	18	21	
0	0	0	0	0	48	42	0	0	0	0	37	53	0	0	
70	0	0	61	0	0	82	0	0	0	0	0	0	61	0	
32	0	0	0	29	0	0	0	0	0	34	0	0	0	38	
0	33	0	0	0	0	0	26	30	29	0	0	0	0	0	
0	0	0	0	0	0	97	0	102	0	0	71	99	0	0	
0	0	58	56	0	0	53	0	0	0	0	51	58	44	0	
35	0	0	0	0	38	0	0	31	0	42	0	33	40	0	
0	13	16	0	0	0	0	16	17	0	0	0	0	0	0	
60	62	56	0	0	65	79	0	0	0	0	78	75	0	72	
0	77	0	0	71	0	81	63	74	71	57	0	0	0	0	
0	61	0	0	0	0	63	0	0	0	0	0	0	0	0	
0	0	0	0	46	44	0	0	0	0	43	0	41	53	0	
0	0	23	0	0	0	0	0	0	24	0	22	0	0	23	
0	0	0	0	0	80	0	0	88	0	84	0	0	62	0	
38	0	0	0	32	45	32	0	0	0	0	37	0	38	0	
0	21	24	0	23	0	0	0	0	0	22	0	0	0	0	
10	0	0	0	0	11	0	0	0	0	10	0	9	0	11	
69	0	72	0	0	0	0	0	0	0	0	60	0	65	84	
0	37	0	0	36	0	0	33	0	0	0	0	0	0	37	
0	107	0	0	0	93	107	0	0	0	0	0	0	0	0	
0	0	0	0	76	0	0	88	0	0	68	0	77	80	82	
0	0	0	0	66	61	60	0	0	0	0	0	0	0	64	
0	0	0	58	0	0	57	0	0	0	0	0	42	46	0	
0	0	0	0	0	0	38	29	0	0	0	29	36	0	0	
0	28	0	30	0	0	0	0	0	0	22	0	0	24	26	
84	91	0	0	0	0	0	0	0	0	0	0	0	0	0	
61	60	0	0	0	61	0	0	0	54	61	0	0	74	0	
0	0	94	0	0	0	86	0	0	0	87	83	0	77	72	
0	0	0	0	0	0	82	0	72	0	89	0	0	0	0	
0	0	78	81	54	0	62	0	0	63	69	0	69	0	0	
0	26	0	0	29	0	30	0	0	0	28	0	0	26	0	
0	96	0	96	0	71	83	0	0	0	84	76	0	81	0	
12	0	0	0	0	0	13	15	0	0	0	0	0	0	13	
0	0	0	42	0	0	0	39	0	0	43	46	0	42	0	
0	0	16	0	0	0	14	0	0	0	0	12	15	0	0	
0	40	0	36	0	37	0	0	0	28	0	0	0	0	36	
0	0	0	0	0	70	0	77	0	0	0	0	81	0	0	
0	0	0	0	0	0	0	0	27	0	0	0	0	28	29	
0	0	0	0	0	0	55	0	0	0	0	45	0	45	0	
81	69	0	0	0	0	0	0	0	0	0	81	0	0	0	
0	0	0	44	0	55	0	46	0	0	42	0	53	0	0	
0	68	0	59	0	58	0	0	0	0	0	61	70	0	0	
0	0	0	0	109	0	0	0	0	111	83	0	0	0	0	
0	0	0	36	0	31	27	39	0	0	0	0	38	31	0	
0	0	0	0	0	0	0	0	0	0	0	0	85	106	96	
0	0	86	0	0	71	64	0	0	0	0	0	0	78	0	
0	0	0	0	0	0	81	0	0	0	0	0	0	0	0	
0	23	0	0	0	0	0	0	28	0	0	29	0	0	0	
0	33	0	0	40	0	0	0	0	0	0	41	0	0	35	
103	0	0	0	86	0	75	105	0	0	0	0	0	0	75	
0	45	0	0	0	0	0	0	31	44	0	0	0	0	0	
0	0	0	0	0	0	41	0	0	0	0	0	35	0	38	
0	0	101	0	0	0	0	0	95	0	72	76	0	0	0	
25	0	0	0	0	0	32	33	0	31	0	0	31	0	26	
0	30	33	0	0	29	0	0	0	0	27	31	33	0	33	
0	0	32	0	0	0	0	0	0	33	0	0	0	0	0	
0	0	0	0	24	0	24	0	0	0	0	0	0	0	0	
0	52	0	55	0	0	0	44	47	0	53	0	45	42	0	
0	0	0	0	0	72	0	0	0	0	0	64	0	0	63	
73	0	101	94	73	0	94	0	0	72	0	0	85	0	0	
0	20	0	0	0	0	22	0	0	0	26	0	21	0	21	
0	0	0	0	0	0	47	52	47	44	0	0	39	0	0	
62	0	73	56	77	72	0	67	59	61	0	0	0	0	63	
0	0	0	0	45	0	51	0	0	0	59	51	58	50	0	
0	0	87	84	0	111	0	0	0	0	0	0	0	0	110	
0	34	0	0	39	31	36	0	33	36	42	0	0	0	0	
19	26	23	0	0	0	0	0	18	25	0	0	0	25	0	
25	24	0	0	0	0	22	0	0	0	26	30	22	0	0	
0	65	0	0	61	0	0	0	0	0	0	58	0	58	65	
0	36	0	0	35	39	0	34	29	29	29	32	36	29	34	
0	0	0	0	37	0	0	0	0	0	0	0	0	0	0	
0	0	0	0	0	0	0	0	0	0	90	0	0	0	0	
0	0	13	0	16	0	0	0	0	0	0	0	0	12	12	
0	0	0	0	0	0	0	105	0	0	0	0	0	0	91	
95	0	0	104	0	0	0	104	0	0	0	79	0	0	0	
0	0	34	0	46	0	47	42	37	0	0	0	0	0	0	
66	0	0	0	82	0	0	0	72	0	0	0	0	0	0	
0	0	22	28	0	0	0	0	0	0	0	0	25	0	0	
0	0	33	0	33	0	0	0	30	0	30	0	0	0	0	
53	0	0	0	0	0	0	0	0	57	64	0	49	0	0	
80	67	0	0	76	0	0	0	90	0	0	0	0	86	0	
